>> Start of run:   1-JUL-2019  16:49:03

reinit: Reading from standard input
reinit: Dumped input in INPUT_TMP.30122
************************** Dump of input data file ****************************
# Created by GDIS version 0.90.0
SystemLabel      MgO-3x3x1-2V
#                       Crystal flags
NumberOfAtoms    18
NumberOfSpecies  2
%block ChemicalSpeciesLabel
    1   12  Mg
    2    8  O
#    3   -8  VO
%endblock ChemicalSpeciesLabel
LatticeConstant 1.0 Ang
%block LatticeParameters
   9.838267618    9.838267618   50.6060000000  90 90 120
%endblock LatticeParameters
AtomicCoordinatesFormat Fractional
%block AtomicCoordinatesAndAtomicSpecies
         0.111000000    0.222000000    0.500000000    1  1  Mg
         0.222000000    0.111000000    0.500000000    2  17  O
         0.111000000    0.555333000    0.500000000    1  2  Mg
         0.111000000    0.888667000    0.500000000    1  3  Mg
         0.444333000    0.222000000    0.500000000    1  4  Mg
         0.444333000    0.555333000    0.500000000    1  5  Mg
         0.444333000    0.888667000    0.500000000    1  6  Mg
         0.777667000    0.222000000    0.500000000    1  7  Mg
         0.777667000    0.555333000    0.500000000    1  8  Mg
         0.777667000    0.888667000    0.500000000    1  9  Mg
         0.555333000    0.777667000    0.500000000    2  18  O
         0.222000000    0.444333000    0.500000000    2  10  O
         0.222000000    0.777667000    0.500000000    2  11  O
         0.555333000    0.111000000    0.500000000    2  12  O
         0.555333000    0.444333000    0.500000000    2  13  O
         0.888667000    0.111000000    0.500000000    2  14  O
         0.888667000    0.444333000    0.500000000    2  15  O
         0.888667000    0.777667000    0.500000000    2  16  O
%endblock AtomicCoordinatesAndAtomicSpecies
#                       Basis flags
%block PAO.BasisSizes
Mg  DZP
O   DZP
%endblock PAO.BasisSizes
%block kgrid_Monkhorst_Pack
10  0    0     0.0
0   10    0     0.0
0   0    1     0.0
%endblock kgrid_Monkhorst_Pack
MeshCutoff 		300  Ry
XC.functional 		GGA
XC.authors 		revPBE
SpinPolarized           .true.
#                       DM flags
DM.MixingWeight 	0.20
DM.NumberPulay          4
DM.UseSaveDM            .true.
DM.Tolerance 		1.0d-4
MaxSCFIterations 	150
#                       MD flags
MD.MaxCGDispl           0.1 Bohr
#MD.TypeOfRun            CG
MD.VariableCell         .False.
MD.NumCGsteps           200
MD.MaxForceTol          0.04000 eV/Ang
MD.UseSaveXV            .true.
#                       Electronic flags
ElectronicTemperature   5 K
NumberOfEigenStates     800
UseNewDiagk            .false.
Diag.ParallelOverK     .false.
LongOutput
WriteMDHistory         .true.
WriteMDXmol            .true.
#COOP.Write .true.
BandLinesScale ReciprocalLatticeVectors
%block BandLines
   1  0.000 0.000 0.000  \Gamma
 200  0.500 0.000 0.000  M
 200  0.333 0.333 0.000  K
 200  0.000 0.000 0.000  \Gamma
%endblock BandLines
Eigenvectors         True
MD.TypeOfRun           LUA
MD.FCfirst             1
MD.FClast              2
MD.FCdispl             0.0400000000  Bohr
Lua.Script          force_constant.lua
************************** End of input data file *****************************

reinit: -----------------------------------------------------------------------
reinit: System Name:
reinit: -----------------------------------------------------------------------
reinit: System Label: MgO-3x3x1-2V
reinit: -----------------------------------------------------------------------

initatom: Reading input for the pseudopotentials and atomic orbitals ----------
Species number:   1 Atomic number:   12 Label: Mg
Species number:   2 Atomic number:    8 Label: O

Ground state valence configuration:   3s02
Reading pseudopotential information in formatted form from Mg.psf

Valence configuration for pseudopotential generation:
3s( 2.00) rc: 2.59
3p( 0.00) rc: 2.76
3d( 0.00) rc: 1.90
4f( 0.00) rc: 1.90
Ground state valence configuration:   2s02  2p04
Reading pseudopotential information in formatted form from O.psf

Pseudopotential generated from a relativistic atomic calculation

Valence configuration for pseudopotential generation:
2s( 2.00) rc: 1.14
2p( 4.00) rc: 1.14
3d( 0.00) rc: 1.14
4f( 0.00) rc: 1.48
resizes: Read basis size for species Mg = dzp
resizes: Read basis size for species O = dzp
For Mg, standard SIESTA heuristics set lmxkb to 2
 (one more than the basis l, including polarization orbitals).
Use PS.lmax or PS.KBprojectors blocks to override.
For O, standard SIESTA heuristics set lmxkb to 3
 (one more than the basis l, including polarization orbitals).
Use PS.lmax or PS.KBprojectors blocks to override.

<basis_specs>
Mg                   Z=  12    Mass=  24.310        Charge= 0.17977+309
Lmxo=0 Lmxkb= 2    BasisType=split      Semic=F
L=0  Nsemic=0  Cnfigmx=3
          i=1  nzeta=2  polorb=1  (3s)
            splnorm:   0.15000
               vcte:    0.0000
               rinn:    0.0000
               qcoe:    0.0000
               qyuk:    0.0000
               qwid:   0.10000E-01
                rcs:    0.0000      0.0000
            lambdas:    1.0000      1.0000
L=0  Nkbl=1  erefs: 0.17977+309
L=1  Nkbl=1  erefs: 0.17977+309
L=2  Nkbl=1  erefs: 0.17977+309
</basis_specs>

atom: Called for Mg                    (Z =  12)

read_vps: Pseudopotential generation method:
read_vps: ATM3      Troullier-Martins
Total valence charge:    2.00000

read_vps: Pseudopotential includes a core correction:
read_vps: Pseudo-core for xc-correction

xc_check: Exchange-correlation functional:
xc_check: GGA revPBE
xc_check: WARNING: Pseudopotential generated with GGA PBE functional
V l=0 = -2*Zval/r beyond r=  2.7941
V l=1 = -2*Zval/r beyond r=  2.8649
V l=2 = -2*Zval/r beyond r=  2.7941
All V_l potentials equal beyond r=  2.6913
This should be close to max(r_c) in ps generation
All pots = -2*Zval/r beyond r=  2.8649

VLOCAL1: 99.0% of the norm of Vloc inside      5.993 Ry
VLOCAL1: 99.9% of the norm of Vloc inside     13.658 Ry
atom: Maximum radius for 4*pi*r*r*local-pseudopot. charge    3.16619
atom: Maximum radius for r*vlocal+2*Zval:    2.72513

KBgen: Kleinman-Bylander projectors:
GHOST: No ghost state for L =  0
   l= 0   rc=  3.088009   el= -0.346455   Ekb=  2.456463   kbcos=  0.270819
GHOST: No ghost state for L =  1
   l= 1   rc=  3.246345   el= -0.098996   Ekb=  0.819459   kbcos=  0.252960
GHOST: No ghost state for L =  2
   l= 2   rc=  3.246345   el=  0.001969   Ekb= -2.090192   kbcos= -0.037102

KBgen: Total number of  Kleinman-Bylander projectors:    9
atom: -------------------------------------------------------------------------

atom: SANKEY-TYPE ORBITALS:
atom: Selected multiple-zeta basis: split

SPLIT: Orbitals with angular momentum L= 0

SPLIT: Basis orbitals for state 3s

SPLIT: PAO cut-off radius determined from an
SPLIT: energy shift=  0.020000 Ry

   izeta = 1
                 lambda =    1.000000
                     rc =    6.619780
                 energy =   -0.327204
                kinetic =    0.288964
    potential(screened) =   -0.616168
       potential(ionic) =   -1.340010

   izeta = 2
                 rmatch =    6.296920
              splitnorm =    0.150000
                 energy =   -0.285079
                kinetic =    0.412067
    potential(screened) =   -0.697146
       potential(ionic) =   -1.441991

POLgen: Perturbative polarization orbital with L=  1

POLgen: Polarization orbital for state 3s

   izeta = 1
                     rc =    6.619780
                 energy =   -0.010527
                kinetic =    0.579937
    potential(screened) =   -0.590464
       potential(ionic) =   -1.302558
atom: Total number of Sankey-type orbitals:  5

atm_pop: Valence configuration (for local Pseudopot. screening):
 3s( 2.00)
Vna: chval, zval:    2.00000   2.00000

Vna:  Cut-off radius for the neutral-atom potential:   6.619780
comcore: Pseudo-core radius Rcore=  3.915882

atom: _________________________________________________________________________

<basis_specs>
O                    Z=   8    Mass=  16.000        Charge= 0.17977+309
Lmxo=1 Lmxkb= 3    BasisType=split      Semic=F
L=0  Nsemic=0  Cnfigmx=2
          i=1  nzeta=2  polorb=0  (2s)
            splnorm:   0.15000
               vcte:    0.0000
               rinn:    0.0000
               qcoe:    0.0000
               qyuk:    0.0000
               qwid:   0.10000E-01
                rcs:    0.0000      0.0000
            lambdas:    1.0000      1.0000
L=1  Nsemic=0  Cnfigmx=2
          i=1  nzeta=2  polorb=1  (2p)
            splnorm:   0.15000
               vcte:    0.0000
               rinn:    0.0000
               qcoe:    0.0000
               qyuk:    0.0000
               qwid:   0.10000E-01
                rcs:    0.0000      0.0000
            lambdas:    1.0000      1.0000
L=0  Nkbl=1  erefs: 0.17977+309
L=1  Nkbl=1  erefs: 0.17977+309
L=2  Nkbl=1  erefs: 0.17977+309
L=3  Nkbl=1  erefs: 0.17977+309
</basis_specs>

atom: Called for O                     (Z =   8)

read_vps: Pseudopotential generation method:
read_vps: ATM3.3    Troullier-Martins
Total valence charge:    6.00000

read_vps: Pseudopotential includes a core correction:
read_vps: Pseudo-core for xc-correction

xc_check: Exchange-correlation functional:
xc_check: GGA revPBE
V l=0 = -2*Zval/r beyond r=  1.1278
V l=1 = -2*Zval/r beyond r=  1.1278
V l=2 = -2*Zval/r beyond r=  1.1278
V l=3 = -2*Zval/r beyond r=  1.4665
All V_l potentials equal beyond r=  1.4482
This should be close to max(r_c) in ps generation
All pots = -2*Zval/r beyond r=  1.4665

VLOCAL1: 99.0% of the norm of Vloc inside     20.696 Ry
VLOCAL1: 99.9% of the norm of Vloc inside     47.167 Ry
atom: Maximum radius for 4*pi*r*r*local-pseudopot. charge    1.74697
atom: Maximum radius for r*vlocal+2*Zval:    1.52250

KBgen: Kleinman-Bylander projectors:
GHOST: No ghost state for L =  0
   l= 0   rc=  1.620715   el= -1.762453   Ekb= 12.304028   kbcos=  0.151877
GHOST: No ghost state for L =  1
   l= 1   rc=  1.600578   el= -0.659331   Ekb=-10.019323   kbcos= -0.441129
GHOST: No ghost state for L =  2
   l= 2   rc=  1.725262   el=  0.001944   Ekb= -2.779253   kbcos= -0.005180
GHOST: No ghost state for L =  3
   l= 3   rc=  2.271458   el=  0.003066   Ekb= -0.634310   kbcos= -0.000917

KBgen: Total number of  Kleinman-Bylander projectors:   16
atom: -------------------------------------------------------------------------

atom: SANKEY-TYPE ORBITALS:
atom: Selected multiple-zeta basis: split

[...]

SPLIT: Basis orbitals for state 2s

[...]

SPLIT: Orbitals with angular momentum L= 1

SPLIT: Basis orbitals for state 2p

SPLIT: PAO cut-off radius determined from an
SPLIT: energy shift=  0.020000 Ry

   izeta = 1
                 lambda =    1.000000
                     rc =    3.937239
                 energy =   -0.641359
                kinetic =    4.976174
    potential(screened) =   -5.617533
       potential(ionic) =  -13.378718

   izeta = 2
                 rmatch =    2.541963
              splitnorm =    0.150000
                 energy =   -0.368830
                kinetic =    7.355874
    potential(screened) =   -7.724704
       potential(ionic) =  -16.349178

[...]
  22    0.017743    0.010244    0.000000
  23    0.018588    0.010732    0.000000
  24    0.019433    0.011219    0.000000
  25    0.020277    0.011707    0.000000
  26    0.021122    0.012195    0.000000
  27    0.021967    0.012683    0.000000
  28    0.022812    0.013171    0.000000
  29    0.023657    0.013658    0.000000
  30    0.024502    0.014146    0.000000
  31    0.025347    0.014634    0.000000
  32    0.026192    0.015122    0.000000
  33    0.027037    0.015610    0.000000
  34    0.027882    0.016097    0.000000
  35    0.028726    0.016585    0.000000
  36    0.029571    0.017073    0.000000
  37    0.030416    0.017561    0.000000
  38    0.031261    0.018049    0.000000
  39    0.032106    0.018536    0.000000
  40    0.032951    0.019024    0.000000
  41    0.033796    0.019512    0.000000
  42    0.034641    0.020000    0.000000
  43    0.035486    0.020488    0.000000
  44    0.036330    0.020975    0.000000
  45    0.037175    0.021463    0.000000
  46    0.038020    0.021951    0.000000
  47    0.038865    0.022439    0.000000
  48    0.039710    0.022927    0.000000
  49    0.040555    0.023414    0.000000
  50    0.041400    0.023902    0.000000
  51    0.042245    0.024390    0.000000
  52    0.043090    0.024878    0.000000
  53    0.043934    0.025366    0.000000
  54    0.044779    0.025853    0.000000
  55    0.045624    0.026341    0.000000
  56    0.046469    0.026829    0.000000
  57    0.047314    0.027317    0.000000
  58    0.048159    0.027805    0.000000
  59    0.049004    0.028292    0.000000
  60    0.049849    0.028780    0.000000
[...]
 587    0.007878    0.013645    0.000000
 588    0.007315    0.012670    0.000000
 589    0.006752    0.011695    0.000000
 590    0.006190    0.010721    0.000000
 591    0.005627    0.009746    0.000000
 592    0.005064    0.008772    0.000000
 593    0.004502    0.007797    0.000000
 594    0.003939    0.006822    0.000000
 595    0.003376    0.005848    0.000000
 596    0.002813    0.004873    0.000000
 597    0.002251    0.003898    0.000000
 598    0.001688    0.002924    0.000000
 599    0.001125    0.001949    0.000000
 600    0.000563    0.000975    0.000000
 601    0.000000    0.000000    0.000000

siesta: Band energies (eV):
  ik is    eps
   1  1 -20.19 -19.86 -19.86 -19.86 -19.86 -19.86 -19.86 -19.71 -19.71  -6.81
         -6.81  -6.81  -6.81  -6.81  -6.81  -6.62  -6.62  -6.50  -6.50  -5.79
         -5.32  -5.32  -5.32  -5.32  -5.32  -5.32  -5.05  -5.05  -4.86  -4.86
         -4.86  -4.86  -4.86  -4.86  -4.32  -4.32  -0.41   2.35   2.36   2.36
          2.36   2.36   2.36   2.86   3.19   3.19   3.19   3.19   3.20   3.20
          3.98   3.98   5.03   5.03   5.30   5.30   6.72   6.72   6.72   6.72
          6.72   6.72   8.96   8.96  12.21  12.22  13.18  13.18  13.18  13.19
         13.19  13.19  13.81  15.04  15.04  15.04  15.04  15.05  15.05  20.23
         20.23  24.61  24.61  26.32  26.32  26.68  26.68  26.69  26.69  26.69
         26.69  29.04  29.04  29.04  29.04  29.04  29.04  30.48  30.48  30.48
         30.48  30.48  30.48  30.66  30.66  32.10  32.39  32.39  35.48  35.48
         36.29  36.29  36.29  36.29  36.30  36.30  36.30  36.30  36.64  36.65
         37.19  37.19  37.20  37.20  37.20  37.21  38.18  41.19  41.19  41.19
         41.19  41.19  41.20  42.42  42.43  42.69  42.69  43.44  43.44  43.46
         43.61  43.61  43.61  43.62  43.62  43.62  43.73  43.73  43.74  43.74
         43.74  43.74  44.61  44.61  48.00  48.00  48.00  48.00  48.01  48.01
         56.76  56.79
   2  1 -20.19 -19.86 -19.86 -19.86 -19.86 -19.86 -19.85 -19.71 -19.71  -6.81
         -6.81  -6.81  -6.81  -6.80  -6.80  -6.62  -6.62  -6.50  -6.50  -5.79
         -5.32  -5.32  -5.32  -5.32  -5.32  -5.32  -5.05  -5.05  -4.86  -4.86
         -4.86  -4.86  -4.86  -4.85  -4.32  -4.32  -0.41   2.35   2.35   2.36
          2.36   2.37   2.37   2.86   3.19   3.19   3.19   3.19   3.20   3.20
          3.98   3.98   5.03   5.03   5.30   5.30   6.70   6.71   6.71   6.72
          6.72   6.73   8.96   8.96  12.21  12.22  13.18  13.18  13.18  13.19
         13.19  13.19  13.81  15.03  15.03  15.04  15.04  15.05  15.05  20.23
         20.23  24.61  24.61  26.32  26.32  26.67  26.68  26.68  26.69  26.70
         26.70  29.03  29.03  29.03  29.05  29.05  29.05  30.46  30.47  30.47
         30.49  30.49  30.50  30.66  30.66  32.10  32.39  32.39  35.48  35.48
         36.29  36.29  36.29  36.29  36.30  36.30  36.30  36.30  36.64  36.65
         37.18  37.19  37.19  37.20  37.21  37.21  38.18  41.18  41.18  41.19
         41.19  41.20  41.20  42.42  42.43  42.69  42.69  43.44  43.44  43.46
         43.57  43.60  43.60  43.63  43.64  43.65  43.73  43.73  43.74  43.74
         43.74  43.75  44.61  44.61  47.99  47.99  48.00  48.00  48.01  48.01
         56.76  56.79
   3  1 -20.19 -19.86 -19.86 -19.86 -19.86 -19.85 -19.85 -19.71 -19.71  -6.82
         -6.81  -6.81  -6.80  -6.80  -6.80  -6.62  -6.62  -6.50  -6.50  -5.79
         -5.32  -5.32  -5.32  -5.32  -5.32  -5.32  -5.05  -5.05  -4.86  -4.86
         -4.86  -4.85  -4.85  -4.85  -4.32  -4.32  -0.41   2.34   2.35   2.35
          2.37   2.37   2.38   2.86   3.19   3.19   3.19   3.19   3.20   3.20
          3.98   3.98   5.03   5.03   5.30   5.30   6.69   6.70   6.70   6.73
          6.73   6.74   8.96   8.96  12.21  12.22  13.18  13.18  13.18  13.19
         13.19  13.19  13.81  15.02  15.03  15.04  15.05  15.06  15.06  20.23
         20.23  24.61  24.61  26.32  26.32  26.66  26.67  26.68  26.70  26.70
         26.72  29.01  29.03  29.03  29.05  29.05  29.07  30.44  30.46  30.46
         30.50  30.50  30.52  30.66  30.66  32.10  32.39  32.40  35.48  35.48
         36.29  36.29  36.29  36.29  36.30  36.30  36.30  36.30  36.64  36.65
         37.18  37.18  37.19  37.20  37.21  37.22  38.18  41.17  41.18  41.19
         41.20  41.21  41.21  42.42  42.43  42.69  42.69  43.44  43.44  43.46
         43.53  43.58  43.58  43.65  43.66  43.69  43.72  43.73  43.73  43.73
         43.75  43.75  44.61  44.61  47.99  47.99  48.00  48.00  48.01  48.01
         56.76  56.79
   4  1 -20.19 -19.86 -19.86 -19.86 -19.85 -19.85 -19.85 -19.71 -19.71  -6.82
         -6.81  -6.81  -6.80  -6.80  -6.79  -6.62  -6.62  -6.50  -6.50  -5.79
         -5.32  -5.32  -5.32  -5.32  -5.32  -5.32  -5.05  -5.05  -4.87  -4.86
         -4.86  -4.85  -4.85  -4.85  -4.32  -4.32  -0.41   2.33   2.34   2.35
          2.37   2.38   2.39   2.86   3.19   3.19   3.19   3.19   3.20   3.20
          3.98   3.98   5.03   5.03   5.30   5.30   6.68   6.70   6.70   6.73
          6.73   6.75   8.96   8.96  12.21  12.22  13.18  13.18  13.18  13.19
         13.19  13.19  13.81  15.01  15.02  15.03  15.05  15.06  15.07  20.23
         20.23  24.61  24.61  26.32  26.32  26.65  26.66  26.67  26.70  26.71
[...]
         -5.32  -5.32  -5.32  -5.32  -5.32  -5.32  -5.05  -5.05  -4.86  -4.86
         -4.86  -4.86  -4.86  -4.86  -4.32  -4.32  -0.41   2.35   2.36   2.36
          2.36   2.36   2.36   2.86   3.19   3.19   3.19   3.19   3.20   3.20
          3.98   3.98   5.03   5.03   5.30   5.30   6.72   6.72   6.72   6.72
          6.72   6.72   8.96   8.96  12.21  12.22  13.18  13.18  13.18  13.19
         13.19  13.19  13.81  15.04  15.04  15.04  15.04  15.05  15.05  20.23
         20.23  24.61  24.61  26.32  26.32  26.68  26.68  26.69  26.69  26.69
         26.69  29.04  29.04  29.04  29.04  29.04  29.04  30.48  30.48  30.48
         30.48  30.48  30.48  30.66  30.66  32.10  32.39  32.39  35.48  35.48
         36.29  36.29  36.29  36.29  36.30  36.30  36.30  36.30  36.64  36.65
         37.19  37.19  37.20  37.20  37.20  37.21  38.18  41.19  41.19  41.19
         41.19  41.19  41.20  42.42  42.43  42.69  42.69  43.44  43.44  43.46
         43.61  43.61  43.61  43.62  43.62  43.62  43.73  43.73  43.74  43.74
         43.74  43.74  44.61  44.61  48.00  48.00  48.00  48.00  48.01  48.01
         56.76  56.79

siesta: Eigenvalues (eV):
  ik is    eps
   1  1 -20.12 -20.04 -19.92 -19.92 -19.77 -19.77 -19.74 -19.74 -19.74  -7.23
         -7.01  -7.01  -6.96  -6.96  -6.50  -6.50  -5.98  -5.92  -5.92  -5.62
         -5.62  -5.61  -5.53  -5.41  -5.40  -5.40  -5.39  -5.18  -5.12  -5.04
         -5.04  -4.56  -4.56  -4.47  -4.43  -4.43   0.19   0.81   1.85   1.85
          2.88   2.94   3.10   3.11   3.43   3.45   3.50   3.50   3.52   3.71
          3.71   3.99   4.13   4.13   4.97   5.53   5.53   5.82   5.82   7.51
          7.51   9.01  10.28  10.28  10.38  11.50  11.50  12.09  12.09  12.46
         12.70  13.44  13.51  13.65  14.77  14.77  16.16  17.15  17.16  18.60
         18.60  25.03  25.04  25.11  25.51  25.52  26.79  27.01  27.31  27.50
         27.51  27.75  27.75  27.85  28.90  28.90  29.16  29.17  29.26  30.52
         30.52  30.56  31.03  33.75  33.77  34.07  34.40  34.41  35.11  35.12
         35.55  35.76  35.77  36.00  36.00  36.18  36.25  36.25  36.34  36.35
         36.48  36.56  36.94  36.95  37.99  38.06  38.12  38.22  39.18  40.64
         40.65  41.04  41.05  41.25  41.25  42.06  42.07  42.25  42.40  42.41
         43.34  43.39  43.40  43.58  43.59  43.72  43.73  43.73  43.93  46.21
         46.21  46.35  46.35  47.15  47.16  47.72  48.16  48.17  50.11  50.43
         52.48  53.58
   1  2 -20.12 -20.04 -19.92 -19.92 -19.77 -19.77 -19.74 -19.74 -19.74  -7.23
         -7.01  -7.01  -6.96  -6.96  -6.50  -6.50  -5.98  -5.92  -5.92  -5.62
         -5.62  -5.61  -5.53  -5.41  -5.40  -5.40  -5.39  -5.18  -5.12  -5.04
         -5.04  -4.56  -4.56  -4.47  -4.43  -4.43   0.19   0.81   1.85   1.85
          2.88   2.94   3.10   3.11   3.43   3.45   3.50   3.50   3.52   3.71
          3.71   3.99   4.13   4.13   4.97   5.53   5.53   5.82   5.82   7.51
          7.51   9.01  10.28  10.28  10.38  11.50  11.50  12.09  12.09  12.46
         12.70  13.44  13.51  13.65  14.77  14.77  16.16  17.15  17.16  18.60
         18.60  25.03  25.04  25.11  25.51  25.52  26.79  27.01  27.31  27.50
         27.51  27.75  27.75  27.85  28.90  28.90  29.16  29.17  29.26  30.52
         30.52  30.56  31.03  33.75  33.77  34.07  34.40  34.41  35.11  35.12
         35.55  35.76  35.77  36.00  36.00  36.18  36.25  36.25  36.34  36.35
         36.48  36.56  36.94  36.95  37.99  38.06  38.12  38.22  39.18  40.64
         40.65  41.04  41.05  41.25  41.25  42.06  42.07  42.25  42.40  42.41
         43.34  43.39  43.40  43.58  43.59  43.72  43.73  43.73  43.93  46.21
         46.21  46.35  46.35  47.15  47.16  47.72  48.16  48.17  50.11  50.43
         52.48  53.58
   2  1 -20.15 -20.00 -19.91 -19.91 -19.79 -19.79 -19.76 -19.73 -19.73  -7.17
         -6.99  -6.99  -6.90  -6.90  -6.55  -6.55  -6.20  -6.08  -6.08  -5.69
         -5.50  -5.50  -5.38  -5.37  -5.37  -5.34  -5.28  -5.22  -5.09  -5.01
         -5.01  -4.63  -4.63  -4.52  -4.38  -4.38  -0.06   1.17   1.91   1.91
          2.87   2.98   3.11   3.11   3.14   3.14   3.39   3.40   3.44   3.61
          3.81   3.82   4.46   4.46   5.36   5.43   5.44   6.02   6.02   7.38
          7.38   8.37   9.76   9.76  11.06  12.12  12.12  12.33  12.33  12.36
         12.83  13.41  13.58  13.89  14.82  14.82  16.00  16.46  16.47  19.25
         19.25  24.85  24.86  25.33  25.79  25.80  26.60  26.71  27.38  27.39
         27.64  27.91  27.91  28.39  28.59  28.94  28.95  29.51  29.52  30.45
         30.46  30.66  31.14  33.19  33.29  33.31  33.35  33.36  35.64  35.64
         35.69  35.71  35.89  36.11  36.11  36.20  36.27  36.28  36.43  36.59
         36.64  36.65  37.06  37.07  37.54  38.00  38.22  39.13  39.73  40.72
         40.72  41.32  41.32  41.60  41.60  41.85  41.86  42.11  42.52  42.53
         43.31  43.32  43.39  43.62  43.65  43.65  43.72  43.72  43.98  45.86
         45.87  45.87  45.87  47.46  47.47  47.73  48.14  48.15  48.72  49.27
         53.92  54.89
   2  2 -20.15 -20.00 -19.91 -19.91 -19.79 -19.79 -19.76 -19.73 -19.73  -7.17
         -6.99  -6.99  -6.90  -6.90  -6.55  -6.55  -6.20  -6.08  -6.08  -5.69
         -5.50  -5.50  -5.38  -5.37  -5.37  -5.34  -5.28  -5.22  -5.09  -5.01
         -5.01  -4.63  -4.63  -4.52  -4.38  -4.38  -0.06   1.17   1.91   1.91
          2.87   2.98   3.11   3.11   3.14   3.14   3.39   3.40   3.44   3.61
          3.81   3.82   4.46   4.46   5.36   5.43   5.44   6.02   6.02   7.38
          7.38   8.37   9.76   9.76  11.06  12.12  12.12  12.33  12.33  12.36
         12.83  13.41  13.58  13.89  14.82  14.82  16.00  16.46  16.47  19.25
         19.25  24.85  24.86  25.33  25.79  25.80  26.60  26.71  27.38  27.39
[...]
         -5.75  -5.75  -5.52  -5.52  -5.41  -5.41  -5.39  -5.15  -5.15  -5.05
         -5.05  -4.49  -4.49  -4.49  -4.49  -4.45   0.48   0.48   1.83   1.83
          2.91   2.91   3.10   3.10   3.51   3.59   3.59   3.60   3.60   3.79
          3.79   3.79   3.80   4.22   4.74   5.67   5.67   5.67   5.67   7.55
          7.55   9.69   9.69  10.87  10.87  10.87  10.87  12.01  12.01  12.57
         12.57  13.45  13.53  13.53  14.75  14.75  16.23  17.88  17.88  17.88
         17.88  25.02  25.26  25.26  25.26  25.26  27.03  27.03  27.38  27.39
         27.55  27.55  27.70  27.70  28.96  28.96  28.96  28.96  29.91  29.91
         30.55  30.56  31.17  34.27  34.28  34.28  34.28  34.52  35.40  35.63
         35.63  35.64  35.64  35.88  35.88  35.89  35.89  36.18  36.24  36.25
         36.53  36.53  36.91  36.91  37.44  38.18  38.19  38.62  38.62  40.62
         40.62  41.05  41.05  41.05  41.05  42.24  42.24  42.25  42.25  42.31
         43.33  43.50  43.50  43.50  43.50  43.75  43.75  43.84  43.84  46.30
         46.30  46.78  46.78  46.78  46.78  47.72  48.17  48.17  51.16  51.17
         52.09  52.09
siesta: Fermi energy =      -0.950423 eV

siesta: Program's energy decomposition (eV):
siesta: Ebs     =      -663.026269
siesta: Eions   =      5767.274450
siesta: Ena     =       593.093540
siesta: Ekin    =      3009.693979
siesta: Enl     =      -967.127558
siesta: Eso     =         0.000000
siesta: Eldau   =         0.000000
siesta: DEna    =       -16.400875
siesta: DUscf   =         8.982047
siesta: DUext   =         0.000000
siesta: Enegf   =         0.000000
siesta: Exc     =     -1121.466781
siesta: eta*DQ  =         0.000000
siesta: Emadel  =         0.000000
siesta: Emeta   =         0.000000
siesta: Emolmec =         0.000000
siesta: Ekinion =         0.000000
siesta: Eharris =     -4260.500099
siesta: Etot    =     -4260.500099
siesta: FreeEng =     -4260.500099

siesta: Final energy (eV):
siesta:  Band Struct. =    -663.026269
siesta:       Kinetic =    3009.693979
siesta:       Hartree =   23355.298718
siesta:       Eldau   =       0.000000
siesta:       Eso     =       0.000000
siesta:    Ext. field =       0.000000
siesta:       Enegf   =       0.000000
siesta:   Exch.-corr. =   -1121.466781
siesta:  Ion-electron =  -49076.243467
siesta:       Ion-ion =   19572.217453
siesta:       Ekinion =       0.000000
siesta:         Total =   -4260.500099
siesta:         Fermi =      -0.950423

siesta: Atomic forces (eV/Ang):
siesta:      1   -0.026406    0.023486    0.049101
siesta:      2    0.030590   -0.017225   -0.069168
siesta:      3   -0.030385    0.025807    0.003987
siesta:      4   -0.030302    0.030123    0.049786
siesta:      5   -0.034106    0.023539    0.049779
siesta:      6   -0.030299    0.025888    0.006439
siesta:      7   -0.030198    0.025673    0.006410
siesta:      8   -0.030410    0.025767    0.003987
siesta:      9   -0.030328    0.025745    0.003976
siesta:     10   -0.030511    0.025609    0.006434
siesta:     11    0.028186   -0.018869   -0.003390
siesta:     12    0.028168   -0.018929   -0.017049
siesta:     13    0.028001   -0.018754   -0.017050
siesta:     14    0.027997   -0.018769   -0.017054
siesta:     15    0.028060   -0.018868   -0.017073
siesta:     16    0.028223   -0.018826   -0.017033
siesta:     17    0.028044   -0.018788   -0.003392
siesta:     18    0.028124   -0.018758   -0.017052
siesta: ----------------------------------------
siesta:    Tot   -0.017550    0.063852    0.001637

siesta: Stress tensor (static) (eV/Ang**3):
siesta:    -0.000760    0.000052   -0.000000
siesta:     0.000052   -0.000749    0.000000
siesta:    -0.000000    0.000000    0.000006

siesta: Cell volume =       4241.992602 Ang**3

siesta: Pressure (static):
siesta:                Solid            Molecule  Units
siesta:           0.00000546          0.00000492  Ry/Bohr**3
siesta:           0.00050091          0.00045206  eV/Ang**3
siesta:           0.80255966          0.72428639  kBar
(Free)E+ p_basis*V_orbitals  =       -4253.389298
(Free)Eharris+ p_basis*V_orbitals  =       -4253.389298
     spin moment: S , {S} =    0.00000       0.0       0.0   0.00000

siesta: Electric dipole (a.u.)  =   -0.000000   -0.000000   -0.043333
siesta: Electric dipole (Debye) =   -0.000000   -0.000000   -0.110143

>> End of run:   1-JUL-2019  17:20:52
Job completed